DIMENSION: 9
EDGE_WEIGHT_TYPE: EXPLICIT
EDGE_WEIGHT_FORMAT: FULL_MATRIX
EDGE_WEIGHT_SECTION:
32767 39 48 19 28 32767 57 32767 90 
39 32767 73 32767 32767 95 31 3 46 
48 73 32767 68 100 12 32767 32767 32767 
19 32767 68 32767 32767 88 59 32767 9 
28 32767 100 32767 32767 28 85 76 32767 
32767 95 12 88 28 32767 32767 67 59 
57 31 32767 59 85 32767 32767 42 61 
32767 3 32767 32767 76 67 42 32767 12 
90 46 32767 9 32767 59 61 12 32767 
EOF